************************************************************************
file with basedata            : cm133_.bas
initial value random generator: 140175200
************************************************************************
projects                      :  1
jobs (incl. supersource/sink ):  18
horizon                       :  95
RESOURCES
  - renewable                 :  2   R
  - nonrenewable              :  2   N
  - doubly constrained        :  0   D
************************************************************************
PROJECT INFORMATION:
pronr.  #jobs rel.date duedate tardcost  MPM-Time
    1     16      0       37        2       37
************************************************************************
PRECEDENCE RELATIONS:
jobnr.    #modes  #successors   successors
   1        1          3           2   3   4
   2        1          2           5  14
   3        1          3           7  10  13
   4        1          2           7   9
   5        1          3           6   7   9
   6        1          3           8  10  13
   7        1          2           8  11
   8        1          2          12  16
   9        1          2          10  13
  10        1          2          11  12
  11        1          2          16  17
  12        1          2          15  17
  13        1          1          15
  14        1          1          16
  15        1          1          18
  16        1          1          18
  17        1          1          18
  18        1          0        
************************************************************************
REQUESTS/DURATIONS:
jobnr. mode duration  R 1  R 2  N 1  N 2
------------------------------------------------------------------------
  1      1     0       0    0    0    0
  2      1     5       0    8    2    6
  3      1     7       5    0    4    6
  4      1     9       0   10    5    6
  5      1     6       0    4    8    8
  6      1     6       0    6    1    7
  7      1     8       5    0    2    7
  8      1     1       0    7    8    6
  9      1     4       0    2    5    5
 10      1     8       0    4    9    2
 11      1     8       0    7    4    7
 12      1     4       0    5    2    8
 13      1     9       0    5    5    8
 14      1     7       3    0    2    1
 15      1     8       2    0    7    7
 16      1     3       8    0    1   10
 17      1     2       0    6    7    6
 18      1     0       0    0    0    0
************************************************************************
RESOURCEAVAILABILITIES:
  R 1  R 2  N 1  N 2
    9   12   72  100
************************************************************************
